nbNodes = 22;
nbVehi = 5;
nbServi = 5;

e = 
 [0,   25,  213,  275,  177,  429,   49,  126,  381,   97,  406,  212,  152,  453,  128,  345,  281,  446,  320,  105,   56,    0,];

l = 
 [480, 100, 320, 367, 237, 517, 129, 191, 465, 211, 525, 309, 252, 537, 238, 416, 382, 539, 401, 187, 141, 480,];

a = 
 [|  1,  1,  1,  1,  0,
 |  1,  1,  1,  1,  1,
 |  1,  1,  1,  0,  1,
 |  1,  1,  1,  1,  1,
 |  1,  1,  1,  0,  1,
 |];

p = array3d(1..nbNodes,1..nbVehi,1..nbServi,
[  0,  0,  0,  0,  0,	  0,  0,  0,  0,  0,	  0,  0,  0,  0,  0,	  0,  0,  0,  0,  0,	  0,  0,  0,  0,  0,	
 27, 16, 10, 15, 15,	 27, 25, 25, 24, 23,	 19, 25, 20, 18, 23,	 15, 12, 16, 12, 11,	 18, 25, 21, 12, 17,	
 23, 22, 20, 26, 18,	 18, 21, 15, 24, 13,	 21, 25, 25, 25, 16,	 28, 21, 27, 11, 11,	 22, 26, 13, 20, 27,	
 11, 10, 33, 17, 32,	 18, 29, 20, 35, 34,	 24, 15, 22, 35, 27,	 31, 29, 28, 35, 12,	 33, 25, 32, 11, 21,	
 28, 20, 11, 12, 11,	 28, 27, 28, 13, 22,	 10, 27, 27, 19, 14,	 26, 18, 22, 20, 19,	 25, 11, 12, 21, 17,	
 33, 12, 13, 15, 20,	 28, 14, 21, 21, 16,	 24, 20, 33, 21, 10,	 33, 11, 21, 24, 26,	 30, 23, 31, 17, 24,	
 24, 20, 16, 21, 24,	 10, 17, 24, 20, 11,	 11, 21, 25, 11, 29,	 20, 25, 23, 16, 25,	 15, 21, 27, 15, 26,	
 14, 19, 22, 23, 14,	 12, 14, 24, 12, 16,	 18, 13, 15, 25, 18,	 26, 23, 17, 15, 25,	 19, 22, 26, 20, 26,	
 12, 30, 22, 30, 14,	 15, 19, 14, 13, 25,	 13, 15, 23, 25, 21,	 10, 25, 27, 24, 17,	 23, 19, 11, 28, 27,	
 26, 14, 19, 22, 22,	 17, 16, 18, 24, 18,	 15, 24, 22, 22, 18,	 22, 12, 14, 27, 16,	 10, 18, 10, 10, 14,	
 18, 15, 25, 19, 10,	 22, 15, 12, 14, 27,	 24, 21, 13, 13, 16,	 21, 18, 12, 16, 10,	 21, 26, 12, 23, 25,	
 20, 30, 29, 25, 30,	 12, 23, 27, 23, 22,	 17, 17, 27, 19, 19,	 10, 14, 23, 12, 19,	 23, 21, 27, 13, 27,	
 27, 18, 12, 10, 12,	 25, 18, 24, 11, 23,	 16, 17, 18, 13, 18,	 20, 27, 15, 25, 24,	 13, 10, 18, 22, 16,	
 29, 19, 22, 19, 16,	 33, 10, 34, 15, 28,	 36, 21, 34, 21, 29,	 30, 18, 16, 27, 21,	 13, 36, 11, 10, 13,	
 24, 13, 20, 12, 23,	 26, 14, 14, 10, 14,	 20, 13, 14, 15, 18,	 12, 12, 18, 19, 23,	 18, 19, 22, 22, 25,	
 23, 13, 10, 28, 16,	 16, 20, 26, 28, 12,	 20, 17, 12, 14, 28,	 12, 23, 12, 14, 28,	 20, 25, 19, 14, 25,	
 23, 17, 22, 21, 26,	 20, 28, 19, 28, 23,	 16, 17, 15, 10, 15,	 24, 29, 23, 25, 16,	 27, 21, 29, 26, 19,	
 26, 27, 21, 23, 17,	 25, 12, 28, 13, 23,	 16, 24, 28, 17, 11,	 25, 23, 13, 15, 24,	 11, 30, 16, 15, 15,	
 21, 16, 17, 17, 16,	 16, 24, 18, 23, 23,	 30, 12, 13, 18, 10,	 13, 21, 22, 17, 14,	 16, 24, 31, 15, 18,	
 25, 21, 22, 19, 20,	 15, 27, 27, 10, 10,	 21, 23, 22, 27, 22,	 24, 17, 18, 13, 13,	 26, 27, 23, 27, 15,	
 15, 26, 14, 24, 12,	 16, 27, 13, 22, 24,	 10, 13, 22, 11, 12,	 16, 17, 20, 21, 12,	 23, 23, 18, 14, 23,	
  0,  0,  0,  0,  0,	  0,  0,  0,  0,  0,	  0,  0,  0,  0,  0,	  0,  0,  0,  0,  0,	  0,  0,  0,  0,  0,	
]);

rs = 
[|  true,  true,  true,  true,  true,	  	
|  false,  false,  false,  true,  false,	  
|  false,  false,  false,  false,  true,	  
|  false,  false,  false,  true,  false,	  	
|  false,  false,  false,  false,  true,	 	
|  false,  false,  false,  true,  false,	 	
|  true,  false,  false,  false,  false,	 	
|  false,  false,  false,  true,  false,	 	
|  false,  false,  false,  false,  true,	 	
|  false,  false,  false,  true,  false,	
|  false,  false,  false,  true,  false,	 
|  true,  false,  false,  false,  false,	  
|  false,  false,  true,  false,  false,	  	
|  false,  false,  false,  true,  false,	 	
|  false,  false,  false,  true,  false,	 	
|  false,  false,  false,  false,  true,	  	
|  true,  false,  false,  false,  false,	  	
|  false,  false,  false,  true,  false,	  	
|  false,  false,  true,  false,  false,	 	
|  false,  false,  false,  false,  true,	  	
|  false,  false,  false,  false,  true,	  	
|  true,  true,  true,  true,  true,	  
|];

d=[|0, 22, 16, 8, 28, 17, 17, 21, 28, 25, 4, 13, 12, 28, 10, 13, 20, 22, 21, 26, 3, 0, 
|22, 0, 35, 21, 7, 39, 23, 27, 50, 25, 26, 15, 31, 5, 12, 36, 30, 35, 10, 45, 23, 22, 
|16, 35, 0, 23, 42, 19, 32, 18, 18, 40, 13, 29, 5, 41, 24, 11, 34, 12, 30, 30, 13, 16, 
|8, 21, 23, 0, 25, 18, 8, 28, 32, 17, 10, 7, 20, 26, 12, 17, 13, 30, 24, 23, 11, 8, 
|28, 7, 42, 25, 0, 43, 24, 34, 56, 25, 32, 18, 37, 5, 18, 41, 31, 42, 16, 48, 29, 28, 
|17, 39, 19, 18, 43, 0, 23, 35, 16, 30, 13, 25, 20, 44, 27, 7, 21, 31, 39, 11, 18, 17, 
|17, 23, 32, 8, 24, 23, 0, 36, 38, 8, 18, 8, 29, 27, 17, 25, 7, 39, 28, 24, 20, 17, 
|21, 27, 18, 28, 34, 35, 36, 0, 37, 43, 23, 29, 15, 31, 20, 28, 41, 10, 18, 45, 18, 21, 
|28, 50, 18, 32, 56, 16, 38, 37, 0, 46, 23, 39, 22, 56, 38, 14, 37, 29, 47, 23, 26, 28, 
|25, 25, 40, 17, 25, 30, 8, 43, 46, 0, 26, 14, 37, 29, 24, 33, 10, 47, 33, 29, 28, 25, 
|4, 26, 13, 10, 32, 13, 18, 23, 23, 26, 0, 16, 11, 32, 14, 9, 20, 21, 25, 23, 5, 4, 
|13, 15, 29, 7, 18, 25, 8, 29, 39, 14, 16, 0, 25, 20, 10, 24, 15, 33, 20, 30, 16, 13, 
|12, 31, 5, 20, 37, 20, 29, 15, 22, 37, 11, 25, 0, 36, 19, 13, 32, 10, 25, 31, 9, 12, 
|28, 5, 41, 26, 5, 44, 27, 31, 56, 29, 32, 20, 36, 0, 17, 41, 34, 39, 13, 50, 29, 28, 
|10, 12, 24, 12, 18, 27, 17, 20, 38, 24, 14, 10, 19, 17, 0, 24, 24, 25, 12, 35, 11, 10, 
|13, 36, 11, 17, 41, 7, 25, 28, 14, 33, 9, 24, 13, 41, 24, 0, 24, 23, 34, 18, 13, 13, 
|20, 30, 34, 13, 31, 21, 7, 41, 37, 10, 20, 15, 32, 34, 24, 24, 0, 42, 35, 19, 24, 20, 
|22, 35, 12, 30, 42, 31, 39, 10, 29, 47, 21, 33, 10, 39, 25, 23, 42, 0, 26, 42, 18, 22, 
|21, 10, 30, 24, 16, 39, 28, 18, 47, 33, 25, 20, 25, 13, 12, 34, 35, 26, 0, 47, 21, 21, 
|26, 45, 30, 23, 48, 11, 24, 45, 23, 29, 23, 30, 31, 50, 35, 18, 19, 42, 47, 0, 28, 26, 
|3, 23, 13, 11, 29, 18, 20, 18, 26, 28, 5, 16, 9, 29, 11, 13, 24, 18, 21, 28, 0, 3, 
|0, 22, 16, 8, 28, 17, 17, 21, 28, 25, 4, 13, 12, 28, 10, 13, 20, 22, 21, 26, 3, 0, 
|];
